12 40 6 10
16 16 8 4 11 10 20 11 3 5 16 19 2 13 6 14 9 15 18 20 14 20 12 12 20 16 1 3 17 16 17 3 14 6 3 1 7 2 3 6 
7.41 9.6 8.33 7.47 11.72 8.33 9.41 10.58 6.43 2.36 6.15 1.38 1.68 6.74 6.31 4.03 0.37 3.6 3.34 15.16 10.99 5.81 9.3 8.79 8.75 7.74 9.06 0.46 0.93 13.59 6.48 8.61 13.98 9.08 10.03 1.42 15.64 6.56 0.45 3.49 
6.68 2.44 6.13 7.78 0.88 0.18 11.8 14.94 7.63 6.19 11.93 10.15 15.34 2.65 12.57 5.53 4.56 15.38 4.5 15.56 15.42 2.81 0.98 5.1 7.33 3.42 4.91 2.5 5.87 1.85 15.82 6.03 8.26 1.79 14.6 5.42 0.04 1.02 2.55 10.15 
12.2 7.36 6.88 12.99 4.56 15.78 11.98 11.46 4.93 14.95 5.39 8.14 7.82 5.24 2.06 6.73 14.34 4.32 6.79 0.98 6.91 6.79 13.71 14.91 10.24 5.52 4.48 11.16 7.93 8.37 10.22 6.17 0.81 9.99 8.2 3.96 5.57 1.23 11.43 14.12 
0.77 15.54 11.94 2.75 14.15 9.28 11.28 12.51 5.47 4.14 6.24 0.04 9.05 3.29 15.54 9.51 5.5 14.13 0.04 4.75 0.39 11.13 1.95 6.31 2.92 13.93 4.67 8.59 15.72 2.8 3.15 10.64 2.89 5.44 8.85 3.25 3.91 15.71 7.79 4.72 
6.46 15.17 14.82 1.21 2.86 13.31 0.61 0.48 9.84 8.17 0.49 10.39 1.3 13.46 15.92 4.8 10.45 2.2 2.93 10.39 15.85 15.35 14.7 10.28 1.94 14.43 8.86 8.76 8.44 10.83 9.3 4.75 0.48 2.08 4.21 4.16 5.31 5.17 10.34 12.51 
10.98 0.06 5.45 12.26 7.77 11.44 14.56 8.25 2.52 11.66 13.37 14.4 4.66 14.3 8.44 10.8 4.34 7.78 11.24 12.3 15.04 0.96 2.22 8.42 8.13 7.77 10.49 15.9 9.68 14.12 2.24 14.62 9.72 12.14 11.79 12.31 13.82 14.79 1.95 9.32 
8 8 8 8 8 8 8 8 8 8 8 8 8 8 8 8 8 8 8 8 8 8 8 8 8 8 8 8 8 8 8 8 8 8 8 8 8 8 8 8 
15.43 9.66 6.11 1.17 5.7 4.37 5.57 4.19 0.24 10.48 2.55 7.62 6.54 13.38 8.57 8.21 1.72 2.56 14.88 2.61 6.88 0.99 10.98 8.98 0.44 2.95 13.1 2.05 9.43 14.33 0.6 1.9 15.01 3 15.92 4.07 3.5 2.94 11.16 6.09 
11.47 13.73 14.32 8.02 15.14 9.2 14.73 12.16 6.88 1.62 12.98 7.16 5.45 10.34 0.68 9.82 7.25 5.55 9.86 3.04 4.71 4.25 11.9 4.84 11.52 4.19 4.02 10.96 11.11 6.36 9.82 9.06 4.3 14.57 8.01 8.73 6.11 8.09 15.39 4.72 
5.61 9.34 2.62 2.45 6.1 11.23 0.38 15.63 12.01 10.89 0.42 5.83 2.84 4.99 2.69 15.54 13.39 14.97 13.62 13.4 8.84 13.53 5.58 8.71 15.74 11.6 15.6 11.41 10.89 13.7 0.2 7.31 5.57 9.33 2.43 10.97 0.31 13.58 13.13 15.97 
4.21 3.61 14.54 8.7 1.39 7.79 3.71 15.26 15.57 9.12 3.21 0.48 0.52 11.18 9.84 8.11 1.62 9.91 12.55 13.61 10.02 6.44 8.45 7.81 10.77 3.18 10.47 1.41 4.17 13.41 0.36 10.39 4.71 7.06 11.02 15.56 9.3 7.21 1.18 1.15 
10.8 11.28 5.23 4.92 15.9 12.97 13.83 15.7 10.82 3.81 12.9 11.26 0.92 7.03 13.99 2.47 9.69 5.29 8.21 11.31 13.54 2.06 2.01 5.11 10.72 0.07 8.19 1.76 9.91 10.68 14.39 0.38 15.82 7.11 15.53 7.91 8.71 1.4 3.35 10.04 
1 1 1 1 1 1 1 1 1 1 1 1 1 1 1 1 1 1 1 1 1 1 1 1 1 1 1 1 1 1 1 1 1 1 1 1 1 1 1 1 
1 1 1 1 1 1 1 1 1 1 1 1 1 1 1 1 1 1 1 1 1 1 1 1 1 1 1 1 1 1 1 1 1 1 1 1 1 1 1 1 
1 1 1 1 1 1 1 1 1 1 1 1 1 1 1 1 1 1 1 1 1 1 1 1 1 1 1 1 1 1 1 1 1 1 1 1 1 1 1 1 
1 1 1 1 1 1 1 1 1 1 1 1 1 1 1 1 1 1 1 1 1 1 1 1 1 1 1 1 1 1 1 1 1 1 1 1 1 1 1 1 
1 1 1 1 1 1 1 1 1 1 1 1 1 1 1 1 1 1 1 1 1 1 1 1 1 1 1 1 1 1 1 1 1 1 1 1 1 1 1 1 
1 1 1 1 1 1 1 1 1 1 1 1 1 1 1 1 1 1 1 1 1 1 1 1 1 1 1 1 1 1 1 1 1 1 1 1 1 1 1 1 
1 1 1 1 1 1 1 1 1 1 1 1 1 1 1 1 1 1 1 1 1 1 1 1 1 1 1 1 1 1 1 1 1 1 1 1 1 1 1 1 
1 1 1 1 1 1 1 1 1 1 1 1 1 1 1 1 1 1 1 1 1 1 1 1 1 1 1 1 1 1 1 1 1 1 1 1 1 1 1 1 
1 1 1 1 1 1 1 1 1 1 1 1 1 1 1 1 1 1 1 1 1 1 1 1 1 1 1 1 1 1 1 1 1 1 1 1 1 1 1 1 
1 1 1 1 1 1 1 1 1 1 1 1 1 1 1 1 1 1 1 1 1 1 1 1 1 1 1 1 1 1 1 1 1 1 1 1 1 1 1 1 
1 1 1 1 1 1 1 1 1 1 1 1 1 1 1 1 1 1 1 1 1 1 1 1 1 1 1 1 1 1 1 1 1 1 1 1 1 1 1 1 
1 1 1 1 1 1 1 1 1 1 1 1 1 1 1 1 1 1 1 1 1 1 1 1 1 1 1 1 1 1 1 1 1 1 1 1 1 1 1 1 
0.01 0.01 0.01 0.01 0.01 0.01 0.01 0.01 0.01 0.01 0.01 0.01 0.01 0.01 0.01 0.01 0.01 0.01 0.01 0.01 0.01 0.01 0.01 0.01 0.01 0.01 0.01 0.01 0.01 0.01 0.01 0.01 0.01 0.01 0.01 0.01 0.01 0.01 0.01 0.01 
0.02 0.02 0.02 0.02 0.02 0.02 0.02 0.02 0.02 0.02 0.02 0.02 0.02 0.02 0.02 0.02 0.02 0.02 0.02 0.02 0.02 0.02 0.02 0.02 0.02 0.02 0.02 0.02 0.02 0.02 0.02 0.02 0.02 0.02 0.02 0.02 0.02 0.02 0.02 0.02 
0.03 0.03 0.03 0.03 0.03 0.03 0.03 0.03 0.03 0.03 0.03 0.03 0.03 0.03 0.03 0.03 0.03 0.03 0.03 0.03 0.03 0.03 0.03 0.03 0.03 0.03 0.03 0.03 0.03 0.03 0.03 0.03 0.03 0.03 0.03 0.03 0.03 0.03 0.03 0.03 
0.04 0.04 0.04 0.04 0.04 0.04 0.04 0.04 0.04 0.04 0.04 0.04 0.04 0.04 0.04 0.04 0.04 0.04 0.04 0.04 0.04 0.04 0.04 0.04 0.04 0.04 0.04 0.04 0.04 0.04 0.04 0.04 0.04 0.04 0.04 0.04 0.04 0.04 0.04 0.04 
0.05 0.05 0.05 0.05 0.05 0.05 0.05 0.05 0.05 0.05 0.05 0.05 0.05 0.05 0.05 0.05 0.05 0.05 0.05 0.05 0.05 0.05 0.05 0.05 0.05 0.05 0.05 0.05 0.05 0.05 0.05 0.05 0.05 0.05 0.05 0.05 0.05 0.05 0.05 0.05 
0.06 0.06 0.06 0.06 0.06 0.06 0.06 0.06 0.06 0.06 0.06 0.06 0.06 0.06 0.06 0.06 0.06 0.06 0.06 0.06 0.06 0.06 0.06 0.06 0.06 0.06 0.06 0.06 0.06 0.06 0.06 0.06 0.06 0.06 0.06 0.06 0.06 0.06 0.06 0.06 
0.07 0.07 0.07 0.07 0.07 0.07 0.07 0.07 0.07 0.07 0.07 0.07 0.07 0.07 0.07 0.07 0.07 0.07 0.07 0.07 0.07 0.07 0.07 0.07 0.07 0.07 0.07 0.07 0.07 0.07 0.07 0.07 0.07 0.07 0.07 0.07 0.07 0.07 0.07 0.07 
0.2 0.2 0.2 0.2 0.2 0.2 0.2 0.2 0.2 0.2 0.2 0.2 0.2 0.2 0.2 0.2 0.2 0.2 0.2 0.2 0.2 0.2 0.2 0.2 0.2 0.2 0.2 0.2 0.2 0.2 0.2 0.2 0.2 0.2 0.2 0.2 0.2 0.2 0.2 0.2 
0.4 0.4 0.4 0.4 0.4 0.4 0.4 0.4 0.4 0.4 0.4 0.4 0.4 0.4 0.4 0.4 0.4 0.4 0.4 0.4 0.4 0.4 0.4 0.4 0.4 0.4 0.4 0.4 0.4 0.4 0.4 0.4 0.4 0.4 0.4 0.4 0.4 0.4 0.4 0.4 
0.6 0.6 0.6 0.6 0.6 0.6 0.6 0.6 0.6 0.6 0.6 0.6 0.6 0.6 0.6 0.6 0.6 0.6 0.6 0.6 0.6 0.6 0.6 0.6 0.6 0.6 0.6 0.6 0.6 0.6 0.6 0.6 0.6 0.6 0.6 0.6 0.6 0.6 0.6 0.6 
0.8 0.8 0.8 0.8 0.8 0.8 0.8 0.8 0.8 0.8 0.8 0.8 0.8 0.8 0.8 0.8 0.8 0.8 0.8 0.8 0.8 0.8 0.8 0.8 0.8 0.8 0.8 0.8 0.8 0.8 0.8 0.8 0.8 0.8 0.8 0.8 0.8 0.8 0.8 0.8 
1 1 1 1 1 1 1 1 1 1 1 1 1 1 1 1 1 1 1 1 1 1 1 1 1 1 1 1 1 1 1 1 1 1 1 1 1 1 1 1 
